NAME : morphed22-2-5
COMMENT : Generated using the function morphInstances from the R-package netgen (Bossek,2015) - Number of clusters: 2 Alpha: 0.5
TYPE : TSP
DIMENSION : 22
EDGE_WEIGHT_TYPE : EUC_2D
NODE_COORD_SECTION
1 10.260099359 55.5446221854
2 64.3954834129 18.0364330611
3 77.5805052439 9.3468929764
4 16.8884821124 68.9158105292
5 6.4952088894 54.8280321655
6 50.6741635498 94.6477695395
7 55.0355896089 9.2198761003
8 47.9910501958 92.8839668303
9 77.3606351627 23.4260260878
10 22.1226688175 6.5497550342
11 37.7733897694 22.8030572481
12 53.1158564725 3.409240289
13 43.0675696594 2.2543418119
14 39.4183394154 63.76291601
15 17.5346761716 73.0756393079
16 13.0480973217 69.2770776699
17 43.6400157544 33.9615637459
18 78.7430522486 26.9471042972
19 36.8513430047 82.8888318826
20 75.7439605023 15.4363547454
21 55.9354362944 84.3814352549
22 44.5957267571 68.5891150473
EOF
